job_count = 10 ;
duration = [|15, 7|15, 14|21, 13|22, 10|12, 11|17, 9|4, 7|9, 13|20, 13|23, 2|] ;
machine_count = 2 ;
cost = [|30, 52|30, 31|21, 49|24, 46|19, 29|20, 42|17, 43|16, 47|23, 34|30, 48|] ;
deadline = [33, 33, 33, 33, 33, 33, 33, 33, 33, 33] ;
release = [0, 0, 0, 0, 0, 0, 0, 0, 0, 0] ;
resource = [|9, 9|9, 9|5, 5|1, 1|3, 3|8, 8|8, 8|3, 3|3, 3|6, 6|] ;
capacities = [10, 10] ;
